Probability/r2.probability.lp.sol
# Objective value = 2
p0_0_0_0 0
p1_0_0_0 0
p0_0_0_1 0
p1_0_0_1 1
p0_0_1_0 0
p1_0_1_0 0
p0_0_1_1 0
p1_0_1_1 0
p0_0_2_0 0
p1_0_2_0 0
p0_0_2_1 0
p1_0_2_1 0
p0_0_3_0 0
p1_0_3_0 0
p0_0_3_1 0
p1_0_3_1 0
p0_1_0_0 0
p1_1_0_0 0
p0_1_0_1 0
p1_1_0_1 0
p0_1_1_0 0
p1_1_1_0 0
p0_1_1_1 0
p1_1_1_1 0
p0_1_2_0 0
p1_1_2_0 0
p0_1_2_1 0
p1_1_2_1 0
p0_1_3_0 0
p1_1_3_0 0
p0_1_3_1 0
p1_1_3_1 0
x0_0 0
x0_1 0
x0_2 0
x0_3 0
x0_4 0
x0_5 1
x0_6 0
x0_7 0
x0_8 1
x0_9 0
x0_10 0
x0_11 0
x0_12 0
x0_13 0
x0_14 0
x0_15 0
x0_16 0
x0_17 0
x0_18 0
x0_19 0
x0_20 0
x0_21 0
x0_22 0
x0_23 0
x0_24 0
x0_25 0
x0_26 0
x0_27 0
x0_28 0
x0_29 0
x0_30 0
x0_31 0
x0_32 0
x0_33 0
x0_34 0
x0_35 0
x0_36 0
x0_37 0
x0_38 0
x0_39 0
x0_40 0
x0_41 0
x0_42 0
x0_43 0
x0_44 0
x0_45 0
x0_46 0
x0_47 0
x0_48 0
x0_49 0
x0_50 0
x0_51 0
x0_52 0
x0_53 0
x0_54 0
x0_55 0
x0_56 0
x0_57 0
x0_58 0
x0_59 0
x0_60 0
x0_61 0
x0_62 0
x0_63 0
A0_0_0 0
y0_0 0
y0_1 0
y0_2 0
y0_3 0
A0_0_1 1
y0_4 0
y0_5 0
y0_6 0
y0_7 1
x0_67 0
d0_0_1 0
x0_66 0
d0_0_2 0
x0_65 0
d0_0_3 0
x0_64 0
d0_0_4 1
x0_71 0
d0_0_5 0
x0_70 0
d0_0_6 0
x0_69 0
d0_0_7 0
x0_68 0
d0_0_8 0
A0_1_0 0
y0_16 0
y0_17 0
y0_18 0
y0_19 0
A0_1_1 0
y0_20 0
y0_21 0
y0_22 0
y0_23 0
x0_75 0
d0_1_1 0
x0_74 0
d0_1_2 0
x0_73 0
d0_1_3 0
x0_72 0
d0_1_4 0
x0_79 0
d0_1_5 0
x0_78 0
d0_1_6 0
x0_77 0
d0_1_7 0
x0_76 0
d0_1_8 0
A0_2_0 0
y0_32 0
y0_33 0
y0_34 0
y0_35 0
A0_2_1 0
y0_36 0
y0_37 0
y0_38 0
y0_39 0
x0_83 0
d0_2_1 0
x0_82 0
d0_2_2 0
x0_81 0
d0_2_3 0
x0_80 0
d0_2_4 0
x0_87 0
d0_2_5 0
x0_86 0
d0_2_6 0
x0_85 0
d0_2_7 0
x0_84 0
d0_2_8 0
A0_3_0 0
y0_48 0
y0_49 0
y0_50 0
y0_51 0
A0_3_1 0
y0_52 0
y0_53 0
y0_54 0
y0_55 0
x0_91 0
d0_3_1 0
x0_90 0
d0_3_2 0
x0_89 0
d0_3_3 0
x0_88 0
d0_3_4 0
x0_95 0
d0_3_5 0
x0_94 0
d0_3_6 0
x0_93 0
d0_3_7 0
x0_92 0
d0_3_8 0
x1_0 0
x1_1 0
x1_2 0
x1_3 0
x1_4 0
x1_5 0
x1_6 0
x1_7 0
x1_8 0
x1_9 0
x1_10 0
x1_11 0
x1_12 0
x1_13 0
x1_14 0
x1_15 0
x1_16 0
x1_17 0
x1_18 0
x1_19 0
x1_20 0
x1_21 0
x1_22 0
x1_23 0
x1_24 0
x1_25 0
x1_26 0
x1_27 0
x1_28 0
x1_29 0
x1_30 0
x1_31 0
x1_32 0
x1_33 0
x1_34 0
x1_35 0
x1_36 0
x1_37 0
x1_38 0
x1_39 0
x1_40 0
x1_41 0
x1_42 0
x1_43 0
x1_44 0
x1_45 0
x1_46 0
x1_47 0
x1_48 0
x1_49 0
x1_50 0
x1_51 0
x1_52 0
x1_53 0
x1_54 0
x1_55 0
x1_56 0
x1_57 0
x1_58 0
x1_59 0
x1_60 0
x1_61 1
x1_62 0
x1_63 0
A1_0_0 0
y1_0 0
y1_1 0
y1_2 0
y1_3 0
A1_0_1 0
y1_4 0
y1_5 0
y1_6 0
y1_7 0
x1_67 0
d1_0_1 0
x1_66 0
d1_0_2 0
x1_65 0
d1_0_3 0
x1_64 0
d1_0_4 0
x1_71 0
d1_0_5 0
x1_70 0
d1_0_6 0
x1_69 0
d1_0_7 0
x1_68 0
d1_0_8 0
A1_1_0 0
y1_16 0
y1_17 0
y1_18 0
y1_19 0
A1_1_1 0
y1_20 0
y1_21 0
y1_22 0
y1_23 0
x1_75 0
d1_1_1 0
x1_74 0
d1_1_2 0
x1_73 0
d1_1_3 0
x1_72 0
d1_1_4 0
x1_79 0
d1_1_5 0
x1_78 0
d1_1_6 0
x1_77 0
d1_1_7 0
x1_76 0
d1_1_8 0
A1_2_0 0
y1_32 0
y1_33 0
y1_34 0
y1_35 0
A1_2_1 0
y1_36 0
y1_37 0
y1_38 0
y1_39 0
x1_83 0
d1_2_1 0
x1_82 0
d1_2_2 0
x1_81 0
d1_2_3 0
x1_80 0
d1_2_4 0
x1_87 0
d1_2_5 0
x1_86 0
d1_2_6 0
x1_85 0
d1_2_7 0
x1_84 0
d1_2_8 0
A1_3_0 0
y1_48 0
y1_49 0
y1_50 0
y1_51 0
A1_3_1 0
y1_52 0
y1_53 0
y1_54 0
y1_55 0
x1_91 0
d1_3_1 0
x1_90 0
d1_3_2 0
x1_89 0
d1_3_3 0
x1_88 0
d1_3_4 0
x1_95 0
d1_3_5 0
x1_94 0
d1_3_6 0
x1_93 1
d1_3_7 1
x1_92 0
d1_3_8 0
x2_0 0
x2_1 0
x2_2 0
x2_3 0
x2_4 0
x2_5 0
x2_6 0
x2_7 0
x2_8 0
x2_9 0
x2_10 0
x2_11 0
x2_12 0
x2_13 0
x2_14 0
x2_15 0
x2_16 0
x2_17 0
x2_18 0
x2_19 0
x2_20 0
x2_21 0
x2_22 0
x2_23 0
x2_24 0
x2_25 0
x2_26 0
x2_27 0
x2_28 0
x2_29 0
x2_30 0
x2_31 0
x2_32 0
x2_33 0
x2_34 0
x2_35 0
x2_36 0
x2_37 0
x2_38 0
x2_39 0
x2_40 0
x2_41 0
x2_42 0
x2_43 0
x2_44 0
x2_45 0
x2_46 0
x2_47 0
x2_48 0
x2_49 0
x2_50 0
x2_51 0
x2_52 0
x2_53 1
x2_54 0
x2_55 0
x2_56 0
x2_57 0
x2_58 0
x2_59 0
x2_60 0
x2_61 0
x2_62 0
x2_63 0
