Logs/r2.probability.lp.log

Gurobi 10.0.3 (win64) logging started Sat Nov  9 16:28:13 2024

Set parameter LogFile to value "r2.probability.lp.log"
Gurobi Optimizer version 10.0.3 build v10.0.3rc0 (win64)

CPU model: 12th Gen Intel(R) Core(TM) i5-1240P, instruction set [SSE2|AVX|AVX2]
Thread count: 12 physical cores, 16 logical processors, using up to 2 threads

Optimize a model with 657 rows, 432 columns and 4480 nonzeros
Model fingerprint: 0x5bbabaa8
Variable types: 0 continuous, 432 integer (432 binary)
Coefficient statistics:
  Matrix range     [1e+00, 1e+01]
  Objective range  [1e+00, 2e+00]
  Bounds range     [1e+00, 1e+00]
  RHS range        [1e+00, 1e+00]
Presolve removed 160 rows and 192 columns
Presolve time: 0.01s
Presolved: 497 rows, 240 columns, 4096 nonzeros
Variable types: 0 continuous, 240 integer (240 binary)
Found heuristic solution: objective 4.0000000

Root relaxation: objective 0.000000e+00, 2 iterations, 0.00 seconds (0.00 work units)

    Nodes    |    Current Node    |     Objective Bounds      |     Work
 Expl Unexpl |  Obj  Depth IntInf | Incumbent    BestBd   Gap | It/Node Time

     0     0    0.00000    0    1    4.00000    0.00000   100%     -    0s
H    0     0                       2.0000000    0.00000   100%     -    0s
     0     0    0.00000    0    1    2.00000    0.00000   100%     -    0s
     0     0    0.00000    0    1    2.00000    0.00000   100%     -    0s
     0     0    0.00000    0    1    2.00000    0.00000   100%     -    0s
     0     0    0.00000    0    1    2.00000    0.00000   100%     -    0s
     0     0    0.00000    0    1    2.00000    0.00000   100%     -    0s
     0     0    0.00000    0    1    2.00000    0.00000   100%     -    0s

Cutting planes:
  Gomory: 3
  Cover: 5

Explored 1 nodes (15 simplex iterations) in 0.04 seconds (0.03 work units)
Thread count was 2 (of 16 available processors)

Solution count 2: 2 4 

Optimal solution found (tolerance 1.00e-04)
Best objective 2.000000000000e+00, best bound 2.000000000000e+00, gap 0.0000%
